
Gurobi 9.5.1 (win64, Java) logging started Thu Apr  7 15:43:55 2022

Set parameter Username
Academic license - for non-commercial use only - expires 2022-05-30
Set parameter Method to value 0
Set parameter Presolve to value 0

Gurobi 9.5.1 (win64, Java) logging started Thu Apr  7 15:47:49 2022

Set parameter Username
Academic license - for non-commercial use only - expires 2022-05-30
Set parameter Method to value 0
Set parameter Presolve to value 0

Gurobi 9.5.1 (win64, Java) logging started Thu Apr  7 15:47:56 2022

Set parameter Username
Academic license - for non-commercial use only - expires 2022-05-30
Set parameter Method to value 0
Set parameter Presolve to value 0

Gurobi 9.5.1 (win64, Java) logging started Thu Apr  7 15:49:06 2022

Set parameter Username
Academic license - for non-commercial use only - expires 2022-05-30
Set parameter Method to value 0
Set parameter Presolve to value 0

Gurobi 9.5.1 (win64, Java) logging started Thu Apr  7 15:50:35 2022

Set parameter Username
Academic license - for non-commercial use only - expires 2022-05-30
Set parameter Method to value 0
Set parameter Presolve to value 0

Gurobi 9.5.1 (win64, Java) logging started Thu Apr  7 15:50:37 2022

Set parameter Username
Academic license - for non-commercial use only - expires 2022-05-30
Set parameter Method to value 0
Set parameter Presolve to value 0

Gurobi 9.5.1 (win64, Java) logging started Thu Apr  7 15:50:39 2022

Set parameter Username
Academic license - for non-commercial use only - expires 2022-05-30
Set parameter Method to value 0
Set parameter Presolve to value 0

Gurobi 9.5.1 (win64, Java) logging started Thu Apr  7 15:50:42 2022

Set parameter Username
Academic license - for non-commercial use only - expires 2022-05-30
Set parameter Method to value 0
Set parameter Presolve to value 0

Gurobi 9.5.1 (win64, Java) logging started Thu Apr  7 15:51:01 2022

Set parameter Username
Academic license - for non-commercial use only - expires 2022-05-30
Set parameter Method to value 0
Set parameter Presolve to value 0

Gurobi 9.5.1 (win64, Java) logging started Thu Apr  7 15:51:47 2022

Set parameter Username
Academic license - for non-commercial use only - expires 2022-05-30
Set parameter Method to value 0
Set parameter Presolve to value 0
Gurobi Optimizer version 9.5.1 build v9.5.1rc2 (win64)
Thread count: 4 physical cores, 8 logical processors, using up to 8 threads
Optimize a model with 21 rows, 100 columns and 421 nonzeros
Model fingerprint: 0xd9ef68b7
Coefficient statistics:
  Matrix range     [1e+00, 3e+03]
  Objective range  [1e+00, 1e+00]
  Bounds range     [1e+00, 3e+00]
  RHS range        [6e+02, 9e+04]
Iteration    Objective       Primal Inf.    Dual Inf.      Time
       0    0.0000000e+00   4.779688e+02   2.436761e+07      0s
      41    0.0000000e+00   0.000000e+00   0.000000e+00      0s

Solved in 41 iterations and 0.00 seconds (0.00 work units)
Optimal objective  0.000000000e+00

Gurobi 9.5.1 (win64, Java) logging started Thu Apr  7 15:55:50 2022

Set parameter Username
Academic license - for non-commercial use only - expires 2022-05-30
Set parameter Method to value 0
Set parameter Presolve to value 0
Gurobi Optimizer version 9.5.1 build v9.5.1rc2 (win64)
Thread count: 4 physical cores, 8 logical processors, using up to 8 threads
Optimize a model with 21 rows, 100 columns and 421 nonzeros
Model fingerprint: 0xd9ef68b7
Coefficient statistics:
  Matrix range     [1e+00, 3e+03]
  Objective range  [1e+00, 1e+00]
  Bounds range     [1e+00, 3e+00]
  RHS range        [6e+02, 9e+04]
Iteration    Objective       Primal Inf.    Dual Inf.      Time
       0    0.0000000e+00   4.779688e+02   2.436761e+07      0s
      41    0.0000000e+00   0.000000e+00   0.000000e+00      0s

Solved in 41 iterations and 0.00 seconds (0.00 work units)
Optimal objective  0.000000000e+00
